(set-logic ALL)
(declare-const x Int)
(assert (= (+ (+ (+ (+ (+ x (+ x 1)) (+ (+ x (+ x 1)) 1)) (+ (+ (+ x (+ x 1)) (+ (+ x (+ x 1)) 1)) 1)) (+ (+ (+ (+ x (+ x 1)) (+ (+ x (+ x 1)) 1)) (+ (+ (+ x (+ x 1)) (+ (+ x (+ x 1)) 1)) 1)) 1)) (+ (+ (+ (+ (+ x (+ x 1)) (+ (+ x (+ x 1)) 1)) (+ (+ (+ x (+ x 1)) (+ (+ x (+ x 1)) 1)) 1)) (+ (+ (+ (+ x (+ x 1)) (+ (+ x (+ x 1)) 1)) (+ (+ (+ x (+ x 1)) (+ (+ x (+ x 1)) 1)) 1)) 1)) 1)) 351))
(check-sat)
(get-model)